c WARNING: for repeatability, setting FPU to use double precision
d VARIABLES            116908       
d CONSTRAINTS          523953       
c ============================[ Problem Statistics ]=============================
c |                                                                             |
c |  Number of variables:        116908                                         |
c |  Number of clauses:          523953                                         |
c |  Parse time:                   0.08 s                                       |
c |                                                                             |
c ============================[ Search Statistics ]==============================
c | Conflicts |          ORIGINAL         |          LEARNT          | Progress |
c |           |    Vars  Clauses Literals |    Limit  Clauses Lit/Cl |          |
c ===============================================================================
c |       100 |  100426   477257  1154714 |   174994      100     18 | 14.098 % |
c |       250 |  100426   477257  1154714 |   192493      250     32 | 14.098 % |
c |       475 |  100426   477257  1154714 |   211743      475     55 | 14.098 % |
c |       812 |  100426   477257  1154714 |   232917      812     78 | 14.098 % |
c |      1318 |  100426   477257  1154714 |   256209     1318     85 | 14.098 % |
c |      2077 |  100426   477257  1154714 |   281829     2077     95 | 14.098 % |
c |      3216 |  100426   477257  1154714 |   310012     3216    110 | 14.098 % |
c |      4924 |  100426   477257  1154714 |   341014     4924    116 | 14.098 % |
c |      7486 |  100426   477257  1154714 |   375115     7486    165 | 14.098 % |
c |     11330 |  100426   477257  1154714 |   412627    11330    185 | 14.098 % |
c |     17096 |  100426   477257  1154714 |   453889    17096    182 | 14.098 % |
c |     25745 |  100422   477237  1154666 |   499278    25743    170 | 14.102 % |
c |     38719 |  100422   477237  1154666 |   549206    38717    172 | 14.102 % |
c |     58180 |  100422   477237  1154666 |   604127    58178    180 | 14.102 % |
c |     87372 |  100422   477237  1154666 |   664540    87370    202 | 14.102 % |
c |    131161 |  100422   477237  1154666 |   730994   131159    218 | 14.102 % |
c |    196845 |  100415   477202  1154582 |   804093   196842    225 | 14.108 % |
c |    295371 |  100406   477157  1154474 |   884503   295367    242 | 14.115 % |
c |    443160 |  100406   477157  1154474 |   972953   443156    247 | 14.115 % |
c |    664843 |  100404   477147  1154450 |  1070248   664838    249 | 14.117 % |
c |    997368 |  100404   477147  1154450 |  1177273   997363    263 | 14.117 % |
c |   1496156 |  100386   477058  1154236 |  1295001   340414    210 | 14.132 % |
c ===============================================================================
c restarts              : 3730
c conflicts             : 1920660        (1071 /sec)
c decisions             : 5173317        (0.00 % random) (2885 /sec)
c propagations          : 4511442164     (2515872 /sec)
c conflict literals     : 478731552      (42.76 % deleted)
d RESTARTS             3730
d FAILURES             1920660      
d NODES                5173317      
d BACKTRACKS           5173317      
d PROPAGATIONS         4511442164   
d NOGOODSIZE           249.25 
d MEMORY               1594.00 
d TIME                 1793.19 

s UNKNOWN
